837.81 0
0 57 42 16 86 38 44 100 37 48 7 88 0
0 27 89 60 18 30 51 81 33 76 3 79 70 90 32 0
0 53 74 72 63 11 46 8 82 94 91 85 93 99 0
0 26 54 67 23 56 75 22 41 15 43 14 13 0
0 95 59 96 6 97 87 58 2 73 24 29 80 12 21 40 0
0 31 62 10 34 78 68 55 25 39 4 28 0
0 5 83 47 36 49 64 19 45 17 0
0 52 84 61 98 92 69 9 35 71 65 66 20 77 50 1 0